2402.9
0 13 14 17 86 49 7 10 32 87 58 0
0 22 23 24 28 35 46 91 2 5 45 21 12 29 0
0 37 38 39 40 42 43 44 72 74 4 3 90 51 76 0
0 54 55 56 57 60 64 31 48 16 61 83 88 36 96 99 0
0 62 63 65 66 71 19 6 15 95 53 27 0
0 77 78 79 81 82 84 18 30 41 25 11 97 94 1 69 0
0 92 93 59 20 34 67 80 33 70 50 68 26 0
0 98 100 85 47 8 9 73 75 52 89 0
